(declare-const c_0 Real)
(declare-const c_1 Real)
(declare-const c_2 Real)
(declare-const c_3 Real)
(declare-const c_4 Real)
(declare-const c_5 Real)
(declare-const c_6 Real)
(declare-const c_7 Real)
(declare-const c_8 Real)
(declare-const c_9 Real)
(declare-const c_10 Real)
(declare-const c_11 Real)
(declare-const c_12 Real)
(declare-const c_13 Real)
(declare-const c_14 Real)
(declare-const c_15 Real)
(declare-const c_16 Real)
(declare-const c_17 Real)
(declare-const c_18 Real)
(declare-const c_19 Real)
(declare-const s_0 Real)
(declare-const s_1 Real)
(declare-const s_2 Real)
(declare-const s_3 Real)
(declare-const s_4 Real)
(declare-const s_5 Real)
(declare-const s_6 Real)
(declare-const s_7 Real)
(declare-const s_8 Real)
(declare-const s_9 Real)
(declare-const s_10 Real)
(declare-const s_11 Real)
(declare-const s_12 Real)
(declare-const s_13 Real)
(declare-const s_14 Real)
(declare-const s_15 Real)
(declare-const s_16 Real)
(declare-const s_17 Real)
(declare-const s_18 Real)
(declare-const s_19 Real)
(assert (forall ((a Real) (b Real) (olda Real) ) (=> (and (>= (+ (* 1024 1) (* 1 a ) ) 0) (>= (+ (* 1023 1) (* (- 1) a ) ) 0) (>= (+ (* 1024 1) (* 1 b ) ) 0) (>= (+ (* 1023 1) (* (- 1) b ) ) 0) (>= (+ (* 1024 1) (* 1 olda ) ) 0) (>= (+ (* 1023 1) (* (- 1) olda ) ) 0) ) (>= (+ (* 1 a b s_2 ) (* 1 a olda s_3 ) (* 1 a s_1 ) (* 1 a a s_4 ) (* 1 b olda s_6 ) (* 1 b s_5 ) (* 1 b b s_7 ) (* 1 olda s_8 ) (* 1 olda olda s_9 ) (* 1 s_0 ) ) 0) )))
(assert (forall ((a Real) (b Real) (olda Real) ) (=> (and (>= (+ (* 1024 1) (* 1 a ) ) 0) (>= (+ (* 1023 1) (* (- 1) a ) ) 0) (>= (+ (* 1024 1) (* 1 b ) ) 0) (>= (+ (* 1023 1) (* (- 1) b ) ) 0) (>= (+ (* 1024 1) (* 1 olda ) ) 0) (>= (+ (* 1023 1) (* (- 1) olda ) ) 0) ) (>= (+ (* 1 a b c_2 ) (* 1 a c_1 ) (* 1 a c_3 olda ) (* 1 a a c_4 ) (* 1 b c_5 ) (* 1 b c_6 olda ) (* 1 b b c_7 ) (* 1 c_0 ) (* 1 c_8 olda ) (* 1 c_9 olda olda ) ) 0) )))
(assert (forall ((a Real) (b Real) (olda Real) ) (=> (and (>= (+ (* (- 7) 1) (* 1 a ) ) 0) (>= (+ (* 1024 1) (* 1 olda ) ) 0) (>= (+ (* 1024 1) (* 1 b ) ) 0) (>= (+ (* 1024 1) (* 1 a ) ) 0) (>= (+ (* 1 a b s_2 ) (* 1 a olda s_3 ) (* 1 a s_1 ) (* 1 a a s_4 ) (* 1 b olda s_6 ) (* 1 b s_5 ) (* 1 b b s_7 ) (* 1 olda s_8 ) (* 1 olda olda s_9 ) (* 1 s_0 ) ) 0) ) (>= (+ (* 1 a b s_2 ) (* 1 a b s_3 ) (* 1 a s_5 ) (* 1 a s_6 ) (* 2 a s_7 ) (* 1 a s_8 ) (* 1 a a s_6 ) (* 1 a a s_7 ) (* 1 a a s_9 ) (* 1 b s_1 ) (* 1 b s_2 ) (* 1 b b s_4 ) (* 1 s_0 ) (* 1 s_5 ) (* 1 s_7 ) ) 0) )))
(assert (forall ((a Real) (b Real) (olda Real) ) (=> (and (>= (+ (* (- 7) 1) (* 1 a ) ) 0) (>= (+ (* 1024 1) (* 1 olda ) ) 0) (>= (+ (* 1024 1) (* 1 b ) ) 0) (>= (+ (* 1024 1) (* 1 a ) ) 0) (>= (+ (* 1 a b s_2 ) (* 1 a olda s_3 ) (* 1 a s_1 ) (* 1 a a s_4 ) (* 1 b olda s_6 ) (* 1 b s_5 ) (* 1 b b s_7 ) (* 1 olda s_8 ) (* 1 olda olda s_9 ) (* 1 s_0 ) ) 0) ) (>= (+ (* 1 a b c_2 ) (* 1 a b c_3 ) (* 1 a c_5 ) (* 1 a c_6 ) (* 2 a c_7 ) (* 1 a c_8 ) (* 1 a a c_6 ) (* 1 a a c_7 ) (* 1 a a c_9 ) (* 1 b c_1 ) (* 1 b c_2 ) (* 1 b b c_4 ) (* 1 c_0 ) (* 1 c_5 ) (* 1 c_7 ) ) 0) )))
(assert (forall ((a Real) (b Real) (olda Real) ) (=> (and (>= (+ (* (- 7) 1) (* 1 a ) ) 0) (>= (+ (* 1024 1) (* 1 olda ) ) 0) (>= (+ (* 1024 1) (* 1 b ) ) 0) (>= (+ (* 1024 1) (* 1 a ) ) 0) (>= (+ (* 1 a b s_2 ) (* 1 a olda s_3 ) (* 1 a s_1 ) (* 1 a a s_4 ) (* 1 b olda s_6 ) (* 1 b s_5 ) (* 1 b b s_7 ) (* 1 olda s_8 ) (* 1 olda olda s_9 ) (* 1 s_0 ) ) 0) ) (>= (+ (* (- 1) 1) (* (- 1) a b c_3 ) (* 1 a c_1 ) (* 1 a c_3 olda ) (* (- 1) a c_5 ) (* (- 1) a c_6 ) (* (- 2) a c_7 ) (* (- 1) a c_8 ) (* 1 a a c_4 ) (* (- 1) a a c_6 ) (* (- 1) a a c_7 ) (* (- 1) a a c_9 ) (* (- 1) b c_1 ) (* (- 1) b c_2 ) (* 1 b c_5 ) (* 1 b c_6 olda ) (* (- 1) b b c_4 ) (* 1 b b c_7 ) (* (- 1) c_5 ) (* (- 1) c_7 ) (* 1 c_8 olda ) (* 1 c_9 olda olda ) ) 0) )))
(assert (forall ((a Real) (b Real) (olda Real) ) (=> (and (>= (+ (* 6 1) (* (- 1) a ) ) 0) (>= (+ (* 1024 1) (* 1 olda ) ) 0) (>= (+ (* 1024 1) (* 1 b ) ) 0) (>= (+ (* 1024 1) (* 1 a ) ) 0) (>= (+ (* 1 a b s_2 ) (* 1 a olda s_3 ) (* 1 a s_1 ) (* 1 a a s_4 ) (* 1 b olda s_6 ) (* 1 b s_5 ) (* 1 b b s_7 ) (* 1 olda s_8 ) (* 1 olda olda s_9 ) (* 1 s_0 ) ) 0) ) (>= (+ (* 1 a b s_12 ) (* 1 a olda s_13 ) (* 1 a s_11 ) (* 1 a a s_14 ) (* 1 b olda s_16 ) (* 1 b s_15 ) (* 1 b b s_17 ) (* 1 olda s_18 ) (* 1 olda olda s_19 ) (* 1 s_10 ) ) 0) )))
(assert (forall ((a Real) (b Real) (olda Real) ) (=> (and (>= (+ (* 6 1) (* (- 1) a ) ) 0) (>= (+ (* 1024 1) (* 1 olda ) ) 0) (>= (+ (* 1024 1) (* 1 b ) ) 0) (>= (+ (* 1024 1) (* 1 a ) ) 0) (>= (+ (* 1 a b s_2 ) (* 1 a olda s_3 ) (* 1 a s_1 ) (* 1 a a s_4 ) (* 1 b olda s_6 ) (* 1 b s_5 ) (* 1 b b s_7 ) (* 1 olda s_8 ) (* 1 olda olda s_9 ) (* 1 s_0 ) ) 0) ) (>= (+ (* 1 a b c_12 ) (* 1 a c_11 ) (* 1 a c_13 olda ) (* 1 a a c_14 ) (* 1 b c_15 ) (* 1 b c_16 olda ) (* 1 b b c_17 ) (* 1 c_10 ) (* 1 c_18 olda ) (* 1 c_19 olda olda ) ) 0) )))

(check-sat)
(get-model)
